\ENCODING=ISO-8859-1
\Problem name: ilog.cplex

Minimize
 obj1: 400 x1 + 400 x2 + 400 x3 + 400 x4 + 400 x5 + 400 x6 + 1.34 x7 + 1.372 x8
       + 1.28 x9 + 1.166 x10 + 1.276 x11 + 1.276 x12 + 77.1
Subject To
 c1:  x1 + x2 + x3 + x4 + x5 + x6 >= 1
 c2:  x13 + x14 + x15 + x16 + x17 + x18  = 1
 c3:  x7 + x18 + x19 + x20 + x21 + x22 >= 1
 c4:  x22 + x23 + x24 + x25 + x26 + x27  = 1
 c5:  x8 + x17 + x27 + x28 + x29 + x30 >= 1
 c6:  x21 + x30 + x31 + x32 + x33 + x34  = 1
 c7:  x9 + x16 + x26 + x34 + x35 + x36 >= 1
 c8:  x20 + x29 + x36 + x37 + x38 + x39  = 1
 c9:  x10 + x15 + x25 + x33 + x39 + x40 >= 1
 c10: x12 + x19 + x28 + x35 + x40 + x41  = 1
 c11: x11 + x14 + x24 + x32 + x38 + x41 >= 1
 c12: x7 + x8 + x9 + x10 + x11 + x42  = 1
 c13: x12 + x13 + x23 + x31 + x37 + x42 >= 1
Bounds
 0 <= x1 <= 1
 0 <= x2 <= 1
 0 <= x3 <= 1
 0 <= x4 <= 1
 0 <= x5 <= 1
 0 <= x6 <= 1
 0 <= x7 <= 1
 0 <= x8 <= 1
 0 <= x9 <= 1
 0 <= x10 <= 1
 0 <= x11 <= 1
 0 <= x12 <= 1
 0 <= x13 <= 1
 0 <= x14 <= 1
 0 <= x15 <= 1
 0 <= x16 <= 1
 0 <= x17 <= 1
 0 <= x18 <= 1
 0 <= x19 <= 1
 0 <= x20 <= 1
 0 <= x21 <= 1
 0 <= x22 <= 1
 0 <= x23 <= 1
 0 <= x24 <= 1
 0 <= x25 <= 1
 0 <= x26 <= 1
 0 <= x27 <= 1
 0 <= x28 <= 1
 0 <= x29 <= 1
 0 <= x30 <= 1
 0 <= x31 <= 1
 0 <= x32 <= 1
 0 <= x33 <= 1
 0 <= x34 <= 1
 0 <= x35 <= 1
 0 <= x36 <= 1
 0 <= x37 <= 1
 0 <= x38 <= 1
 0 <= x39 <= 1
 0 <= x40 <= 1
 0 <= x41 <= 1
 0 <= x42 <= 1
Binaries
 x1  x2  x3  x4  x5  x6  x7  x8  x9  x10  x11  x12  x13  x14  x15  x16  x17 
 x18  x19  x20  x21  x22  x23  x24  x25  x26  x27  x28  x29  x30  x31  x32 
 x33  x34  x35  x36  x37  x38  x39  x40  x41  x42 
End
